************************************************************************
file with basedata            : mm45_.bas
initial value random generator: 17554
************************************************************************
projects                      :  1
jobs (incl. supersource/sink ):  12
horizon                       :  79
RESOURCES
  - renewable                 :  2   R
  - nonrenewable              :  2   N
  - doubly constrained        :  0   D
************************************************************************
PROJECT INFORMATION:
pronr.  #jobs rel.date duedate tardcost  MPM-Time
    1     10      0       20        8       20
************************************************************************
PRECEDENCE RELATIONS:
jobnr.    #modes  #successors   successors
   0        1          3           1   2   3
   1        3          3           4   6   7
   2        3          2           7  10
   3        3          2           6  10
   4        3          2           5   8
   5        3          1          10
   6        3          1           9
   7        3          1           8
   8        3          1          11
   9        3          1          11
  10        3          1          11
  11        1          0        
************************************************************************
REQUESTS/DURATIONS:
jobnr. mode duration  R 1  R 2  R 3  R 4  E(W 1)  E(W 2)
------------------------------------------------------------------------
  0      1     0       0    0    0    0     0       0
  1      1     4       8    3    2    4    44      24
  2      1     8       5    7    9    8    96      136
  3      1     2       4    7    5   10    22      30
  4      1     4       3    6    4    4    36      32
  5      1     7       9    8    8    3    119      77
  6      1     5       2    7    8    9    45      85
  7      1     1       6    6    7    7    12      14
  8      1     1       4    5    3    9     9      12
  9      1     2       9    6    7    7    30      28
 10      1     5       8    6    9    6    70      75
 11      1     0       0    0    0    0     0       0
************************************************************************
RESOURCEAVAILABILITIES:
  R 1  R 2
   30   98
************************************************************************
RESOURCE LIMITS:
jobnr.  l(R 1)  u(R 1)  l(R 2)  u(R 2)
------------------------------------------------------------------------
  0        0       0       0       0
  1        6      11       3       6
  2        7      12       9      17
  3        6      11       8      15
  4        5       9       4       8
  5        9      17       6      11
  6        5       9       9      17
  7        6      12       8      14
  8        5       9       7      12
  9        8      15       8      14
 10        7      14       8      15
 11        0       0       0       0
************************************************************************
SCENARIOS:
------------------------------------------------------------------------
RESOURCE k = 1
s = 1: (0, 54, 63, 30, 33, 98, 29, 18, 7, 41, 79, 0)
s = 2: (0, 36, 122, 20, 45, 182, 34, 13, 8, 29, 88, 0)
s = 3: (0, 31, 76, 33, 30, 89, 30, 11, 9, 32, 80, 0)
s = 4: (0, 24, 164, 29, 24, 113, 61, 15, 7, 46, 63, 0)
s = 5: (0, 39, 62, 15, 27, 122, 36, 9, 10, 26, 115, 0)
s = 6: (0, 42, 71, 31, 34, 101, 46, 14, 16, 38, 44, 0)
s = 7: (0, 69, 106, 15, 39, 103, 39, 11, 7, 42, 46, 0)
s = 8: (0, 57, 94, 24, 22, 75, 26, 18, 11, 17, 94, 0)
s = 9: (0, 38, 107, 32, 41, 129, 32, 12, 16, 31, 74, 0)
s = 10: (0, 58, 113, 14, 30, 130, 59, 11, 9, 29, 68, 0)
s = 11: (0, 33, 97, 23, 50, 74, 41, 10, 9, 37, 55, 0)
s = 12: (0, 28, 89, 27, 22, 110, 25, 14, 14, 41, 51, 0)
s = 13: (0, 39, 62, 35, 52, 149, 37, 12, 6, 44, 57, 0)
s = 14: (0, 47, 64, 21, 27, 98, 53, 13, 9, 22, 65, 0)
s = 15: (0, 67, 112, 20, 40, 152, 29, 17, 7, 36, 39, 0)
s = 16: (0, 55, 179, 19, 32, 75, 43, 11, 8, 36, 91, 0)
s = 17: (0, 39, 143, 16, 33, 126, 53, 18, 10, 17, 70, 0)
s = 18: (0, 50, 119, 14, 51, 107, 53, 15, 7, 35, 86, 0)
s = 19: (0, 31, 68, 21, 36, 177, 51, 10, 11, 40, 60, 0)
s = 20: (0, 53, 115, 26, 25, 98, 33, 12, 7, 41, 44, 0)
s = 21: (0, 59, 75, 22, 40, 106, 57, 13, 8, 35, 93, 0)
s = 22: (0, 76, 98, 21, 33, 78, 37, 15, 10, 30, 84, 0)
s = 23: (0, 50, 77, 18, 24, 79, 50, 14, 7, 39, 50, 0)
s = 24: (0, 33, 164, 28, 26, 120, 39, 17, 10, 39, 44, 0)
s = 25: (0, 28, 58, 23, 23, 133, 55, 13, 7, 19, 75, 0)
s = 26: (0, 42, 85, 30, 33, 90, 50, 13, 11, 51, 83, 0)
s = 27: (0, 59, 77, 33, 35, 114, 61, 9, 9, 25, 79, 0)
s = 28: (0, 51, 66, 25, 33, 107, 42, 7, 8, 16, 123, 0)
s = 29: (0, 61, 76, 16, 32, 83, 51, 17, 12, 23, 71, 0)
s = 30: (0, 47, 106, 25, 27, 99, 55, 12, 9, 45, 72, 0)
s = 31: (0, 56, 93, 16, 48, 94, 28, 17, 11, 24, 45, 0)
s = 32: (0, 30, 104, 16, 58, 109, 58, 21, 6, 45, 82, 0)
s = 33: (0, 49, 132, 13, 30, 134, 30, 17, 6, 55, 46, 0)
s = 34: (0, 46, 63, 38, 26, 66, 37, 12, 9, 46, 44, 0)
s = 35: (0, 58, 87, 18, 44, 139, 70, 13, 7, 25, 81, 0)
s = 36: (0, 50, 140, 15, 22, 130, 35, 10, 6, 58, 65, 0)
s = 37: (0, 68, 98, 17, 23, 78, 44, 9, 8, 20, 76, 0)
s = 38: (0, 48, 52, 31, 24, 99, 40, 16, 17, 49, 79, 0)
s = 39: (0, 32, 69, 19, 60, 119, 57, 10, 9, 21, 104, 0)
s = 40: (0, 37, 88, 12, 26, 157, 51, 12, 9, 28, 49, 0)
s = 41: (0, 29, 97, 17, 71, 122, 36, 8, 6, 26, 103, 0)
s = 42: (0, 50, 95, 32, 35, 93, 70, 15, 11, 17, 88, 0)
s = 43: (0, 38, 96, 30, 44, 159, 55, 12, 12, 27, 70, 0)
s = 44: (0, 46, 114, 23, 31, 87, 39, 16, 9, 27, 77, 0)
s = 45: (0, 39, 53, 19, 48, 102, 34, 9, 7, 21, 45, 0)
s = 46: (0, 27, 145, 15, 37, 126, 58, 12, 12, 43, 70, 0)
s = 47: (0, 38, 132, 29, 40, 72, 35, 12, 6, 22, 104, 0)
s = 48: (0, 45, 120, 25, 38, 139, 47, 14, 6, 19, 70, 0)
s = 49: (0, 29, 94, 23, 28, 162, 66, 12, 10, 29, 65, 0)
s = 50: (0, 49, 79, 23, 30, 147, 31, 11, 11, 20, 60, 0)
s = 51: (0, 54, 70, 23, 38, 116, 56, 19, 6, 26, 69, 0)
s = 52: (0, 38, 94, 27, 28, 103, 81, 10, 11, 35, 60, 0)
s = 53: (0, 59, 70, 13, 49, 112, 32, 19, 10, 29, 82, 0)
s = 54: (0, 42, 91, 38, 36, 89, 60, 14, 7, 24, 70, 0)
s = 55: (0, 64, 79, 26, 48, 128, 46, 8, 9, 39, 70, 0)
s = 56: (0, 31, 90, 21, 46, 135, 33, 12, 10, 17, 43, 0)
s = 57: (0, 38, 98, 33, 35, 161, 39, 11, 10, 20, 73, 0)
s = 58: (0, 25, 120, 32, 26, 155, 47, 11, 8, 31, 45, 0)
s = 59: (0, 26, 81, 16, 40, 94, 43, 8, 7, 25, 89, 0)
s = 60: (0, 41, 159, 27, 56, 116, 46, 12, 10, 22, 80, 0)
s = 61: (0, 25, 56, 18, 59, 123, 61, 12, 6, 28, 48, 0)
s = 62: (0, 33, 123, 20, 49, 117, 47, 10, 10, 33, 58, 0)
s = 63: (0, 54, 104, 21, 27, 87, 36, 12, 13, 21, 105, 0)
s = 64: (0, 51, 89, 15, 53, 108, 31, 13, 11, 45, 97, 0)
s = 65: (0, 34, 72, 18, 29, 64, 65, 8, 13, 23, 54, 0)
s = 66: (0, 62, 83, 20, 62, 127, 30, 19, 17, 52, 102, 0)
s = 67: (0, 40, 112, 20, 32, 167, 30, 10, 11, 32, 78, 0)
s = 68: (0, 39, 82, 22, 40, 136, 39, 19, 7, 25, 47, 0)
s = 69: (0, 30, 82, 19, 38, 84, 36, 13, 10, 17, 89, 0)
s = 70: (0, 38, 53, 16, 25, 92, 29, 11, 6, 20, 102, 0)
s = 71: (0, 34, 134, 26, 39, 191, 34, 16, 7, 36, 61, 0)
s = 72: (0, 41, 91, 25, 27, 104, 38, 11, 9, 46, 51, 0)
s = 73: (0, 33, 108, 33, 21, 116, 37, 19, 11, 33, 87, 0)
s = 74: (0, 39, 118, 18, 30, 112, 31, 10, 10, 42, 55, 0)
s = 75: (0, 33, 105, 15, 33, 134, 65, 10, 9, 21, 64, 0)
s = 76: (0, 36, 79, 23, 36, 159, 59, 18, 13, 34, 102, 0)
s = 77: (0, 49, 101, 30, 22, 133, 39, 9, 11, 35, 120, 0)
s = 78: (0, 38, 104, 23, 63, 183, 61, 8, 9, 34, 80, 0)
s = 79: (0, 53, 132, 22, 27, 113, 41, 19, 11, 42, 96, 0)
s = 80: (0, 33, 72, 28, 31, 184, 36, 11, 12, 22, 68, 0)
s = 81: (0, 30, 113, 22, 39, 109, 51, 14, 7, 25, 45, 0)
s = 82: (0, 42, 100, 27, 42, 136, 63, 8, 8, 31, 108, 0)
s = 83: (0, 64, 114, 15, 21, 87, 52, 9, 12, 23, 66, 0)
s = 84: (0, 40, 62, 18, 47, 192, 26, 8, 10, 39, 86, 0)
s = 85: (0, 38, 175, 21, 30, 77, 69, 9, 9, 22, 63, 0)
s = 86: (0, 46, 88, 26, 54, 165, 51, 18, 12, 33, 52, 0)
s = 87: (0, 40, 95, 23, 27, 96, 34, 16, 14, 19, 67, 0)
s = 88: (0, 45, 62, 31, 23, 104, 30, 13, 11, 21, 37, 0)
s = 89: (0, 26, 70, 26, 33, 212, 54, 12, 8, 32, 80, 0)
s = 90: (0, 60, 110, 20, 50, 76, 29, 16, 6, 17, 47, 0)
s = 91: (0, 40, 66, 16, 27, 83, 36, 12, 9, 27, 50, 0)
s = 92: (0, 37, 134, 24, 46, 121, 44, 10, 8, 26, 67, 0)
s = 93: (0, 76, 77, 24, 29, 101, 53, 9, 10, 38, 90, 0)
s = 94: (0, 35, 92, 25, 24, 74, 38, 17, 11, 26, 51, 0)
s = 95: (0, 29, 81, 33, 35, 107, 33, 18, 8, 29, 40, 0)
s = 96: (0, 50, 77, 20, 33, 136, 66, 9, 9, 21, 69, 0)
s = 97: (0, 37, 115, 18, 43, 150, 36, 16, 6, 31, 80, 0)
s = 98: (0, 53, 130, 32, 57, 78, 31, 12, 9, 32, 91, 0)
s = 99: (0, 34, 135, 35, 42, 84, 43, 10, 12, 19, 55, 0)
s = 100: (0, 57, 52, 26, 23, 99, 38, 16, 11, 41, 101, 0)
s = 101: (0, 58, 121, 17, 34, 150, 24, 13, 8, 33, 78, 0)
s = 102: (0, 49, 59, 23, 39, 112, 29, 13, 6, 28, 95, 0)
s = 103: (0, 41, 119, 18, 24, 78, 54, 13, 9, 21, 66, 0)
s = 104: (0, 41, 68, 14, 44, 98, 52, 14, 13, 27, 52, 0)
s = 105: (0, 36, 141, 20, 52, 104, 46, 9, 6, 19, 53, 0)
s = 106: (0, 47, 95, 28, 41, 89, 41, 10, 14, 51, 53, 0)
s = 107: (0, 51, 89, 27, 29, 123, 48, 13, 6, 26, 49, 0)
s = 108: (0, 49, 101, 17, 41, 97, 48, 10, 10, 31, 79, 0)
s = 109: (0, 64, 75, 19, 27, 98, 39, 8, 9, 26, 56, 0)
s = 110: (0, 41, 118, 28, 38, 144, 37, 10, 11, 43, 61, 0)
s = 111: (0, 52, 56, 24, 28, 160, 52, 14, 11, 38, 96, 0)
s = 112: (0, 48, 50, 20, 58, 110, 58, 9, 9, 24, 58, 0)
s = 113: (0, 46, 98, 22, 45, 95, 51, 17, 8, 23, 85, 0)
s = 114: (0, 32, 86, 33, 41, 157, 47, 11, 11, 43, 75, 0)
s = 115: (0, 39, 126, 29, 31, 147, 72, 15, 9, 22, 93, 0)
s = 116: (0, 45, 96, 25, 39, 134, 50, 9, 10, 28, 58, 0)
s = 117: (0, 32, 66, 22, 51, 85, 36, 10, 6, 32, 105, 0)
s = 118: (0, 34, 59, 16, 29, 83, 81, 13, 10, 37, 80, 0)
s = 119: (0, 63, 55, 19, 34, 65, 65, 11, 13, 32, 65, 0)
s = 120: (0, 39, 79, 27, 41, 118, 38, 8, 9, 40, 63, 0)
s = 121: (0, 33, 74, 23, 38, 131, 57, 12, 6, 31, 102, 0)
s = 122: (0, 35, 81, 23, 28, 114, 53, 9, 8, 28, 56, 0)
s = 123: (0, 30, 85, 18, 27, 62, 61, 14, 11, 48, 81, 0)
s = 124: (0, 52, 59, 19, 39, 68, 39, 12, 7, 31, 56, 0)
s = 125: (0, 54, 120, 16, 31, 133, 62, 9, 6, 54, 87, 0)
s = 126: (0, 46, 105, 23, 35, 93, 41, 18, 8, 44, 74, 0)
s = 127: (0, 44, 68, 26, 45, 89, 76, 7, 10, 18, 59, 0)
s = 128: (0, 56, 152, 28, 21, 95, 26, 9, 10, 34, 79, 0)
s = 129: (0, 55, 62, 16, 40, 106, 52, 13, 7, 32, 93, 0)
s = 130: (0, 47, 153, 14, 42, 69, 49, 15, 16, 23, 41, 0)
s = 131: (0, 37, 124, 15, 41, 121, 77, 9, 8, 39, 58, 0)
s = 132: (0, 57, 77, 12, 32, 114, 34, 11, 12, 38, 50, 0)
s = 133: (0, 56, 134, 25, 35, 107, 46, 9, 9, 29, 90, 0)
s = 134: (0, 32, 49, 32, 32, 178, 26, 12, 9, 29, 94, 0)
s = 135: (0, 53, 79, 17, 44, 125, 28, 11, 7, 30, 67, 0)
s = 136: (0, 37, 95, 16, 27, 147, 55, 9, 9, 18, 64, 0)
s = 137: (0, 33, 106, 18, 37, 120, 27, 10, 14, 27, 71, 0)
s = 138: (0, 35, 85, 20, 46, 65, 52, 13, 8, 32, 78, 0)
s = 139: (0, 52, 62, 17, 25, 156, 38, 13, 8, 41, 55, 0)
s = 140: (0, 56, 166, 19, 51, 68, 26, 13, 15, 22, 125, 0)
s = 141: (0, 59, 68, 18, 26, 104, 43, 10, 14, 21, 59, 0)
s = 142: (0, 63, 94, 17, 31, 112, 48, 8, 8, 31, 116, 0)
s = 143: (0, 46, 98, 26, 26, 142, 46, 9, 6, 28, 61, 0)
s = 144: (0, 30, 116, 13, 43, 109, 31, 9, 8, 21, 89, 0)
s = 145: (0, 51, 103, 23, 48, 126, 33, 8, 9, 21, 70, 0)
s = 146: (0, 67, 73, 31, 52, 96, 31, 14, 8, 29, 43, 0)
s = 147: (0, 34, 136, 17, 34, 128, 44, 17, 11, 21, 101, 0)
s = 148: (0, 34, 71, 26, 47, 133, 61, 12, 10, 21, 68, 0)
s = 149: (0, 51, 92, 22, 48, 139, 35, 20, 10, 21, 77, 0)
s = 150: (0, 49, 82, 18, 31, 143, 35, 12, 11, 26, 115, 0)
s = 151: (0, 54, 63, 16, 42, 85, 36, 9, 9, 36, 106, 0)
s = 152: (0, 42, 167, 26, 30, 132, 72, 14, 6, 29, 43, 0)
s = 153: (0, 44, 77, 16, 31, 140, 52, 15, 7, 22, 53, 0)
s = 154: (0, 44, 69, 20, 40, 170, 32, 10, 11, 28, 81, 0)
s = 155: (0, 42, 88, 22, 62, 134, 30, 12, 9, 39, 90, 0)
s = 156: (0, 51, 85, 19, 34, 138, 46, 10, 10, 25, 87, 0)
s = 157: (0, 31, 81, 22, 42, 194, 35, 9, 10, 23, 54, 0)
s = 158: (0, 29, 80, 18, 48, 102, 40, 15, 16, 27, 74, 0)
s = 159: (0, 42, 79, 26, 38, 132, 45, 12, 11, 24, 103, 0)
s = 160: (0, 62, 59, 20, 55, 84, 48, 12, 11, 26, 88, 0)
s = 161: (0, 55, 69, 20, 40, 119, 68, 7, 8, 44, 70, 0)
s = 162: (0, 40, 90, 27, 33, 66, 49, 15, 8, 33, 66, 0)
s = 163: (0, 29, 153, 30, 31, 153, 60, 10, 6, 26, 94, 0)
s = 164: (0, 36, 91, 31, 63, 115, 38, 18, 14, 25, 106, 0)
s = 165: (0, 25, 106, 23, 36, 141, 44, 15, 13, 29, 83, 0)
s = 166: (0, 55, 70, 23, 35, 91, 41, 8, 12, 25, 86, 0)
s = 167: (0, 42, 175, 16, 19, 89, 43, 12, 6, 28, 63, 0)
s = 168: (0, 37, 104, 33, 35, 115, 37, 9, 9, 16, 64, 0)
s = 169: (0, 29, 97, 22, 27, 118, 56, 13, 12, 21, 38, 0)
s = 170: (0, 34, 89, 20, 32, 109, 54, 9, 11, 23, 67, 0)
s = 171: (0, 35, 71, 17, 51, 112, 62, 12, 11, 36, 64, 0)
s = 172: (0, 53, 176, 31, 25, 145, 45, 13, 11, 21, 68, 0)
s = 173: (0, 43, 121, 25, 40, 100, 33, 10, 8, 40, 60, 0)
s = 174: (0, 38, 64, 21, 52, 124, 55, 13, 9, 34, 134, 0)
s = 175: (0, 35, 84, 14, 23, 97, 46, 12, 5, 34, 68, 0)
s = 176: (0, 55, 104, 30, 26, 185, 44, 7, 7, 28, 59, 0)
s = 177: (0, 40, 78, 31, 22, 118, 43, 12, 10, 25, 67, 0)
s = 178: (0, 31, 59, 26, 32, 160, 25, 18, 8, 20, 130, 0)
s = 179: (0, 48, 82, 22, 22, 214, 32, 9, 8, 35, 71, 0)
s = 180: (0, 34, 86, 25, 33, 118, 40, 13, 11, 30, 66, 0)
s = 181: (0, 46, 76, 22, 35, 97, 32, 11, 14, 26, 94, 0)
s = 182: (0, 44, 97, 30, 43, 148, 29, 13, 12, 21, 53, 0)
s = 183: (0, 53, 96, 21, 36, 122, 56, 13, 10, 24, 56, 0)
s = 184: (0, 60, 111, 30, 50, 161, 74, 13, 6, 45, 99, 0)
s = 185: (0, 48, 130, 20, 24, 142, 58, 11, 10, 44, 51, 0)
s = 186: (0, 27, 101, 15, 45, 91, 47, 8, 7, 31, 57, 0)
s = 187: (0, 28, 146, 16, 22, 136, 33, 18, 11, 38, 83, 0)
s = 188: (0, 36, 81, 26, 35, 205, 29, 14, 11, 28, 107, 0)
s = 189: (0, 31, 161, 27, 27, 86, 63, 9, 15, 35, 101, 0)
s = 190: (0, 37, 82, 16, 29, 164, 38, 20, 10, 27, 48, 0)
s = 191: (0, 43, 74, 35, 35, 142, 27, 14, 13, 23, 68, 0)
s = 192: (0, 43, 114, 26, 50, 127, 49, 13, 14, 24, 69, 0)
s = 193: (0, 42, 63, 13, 38, 82, 60, 10, 13, 33, 83, 0)
s = 194: (0, 49, 80, 14, 21, 123, 65, 10, 6, 47, 89, 0)
s = 195: (0, 51, 83, 29, 32, 131, 61, 11, 11, 21, 86, 0)
s = 196: (0, 42, 140, 26, 31, 103, 85, 13, 11, 25, 50, 0)
s = 197: (0, 53, 66, 25, 40, 144, 43, 10, 6, 25, 46, 0)
s = 198: (0, 60, 145, 18, 49, 139, 34, 7, 10, 32, 65, 0)
s = 199: (0, 35, 77, 22, 30, 190, 65, 16, 13, 28, 46, 0)
s = 200: (0, 29, 75, 21, 24, 165, 66, 14, 10, 28, 72, 0)
------------------------------------------------------------------------
RESOURCE k = 2
s = 1: (0, 30, 89, 41, 29, 63, 54, 21, 9, 39, 85, 0)
s = 2: (0, 20, 172, 27, 40, 118, 64, 15, 10, 27, 95, 0)
s = 3: (0, 17, 107, 45, 27, 58, 57, 13, 12, 30, 86, 0)
s = 4: (0, 13, 233, 39, 21, 74, 115, 17, 10, 43, 68, 0)
s = 5: (0, 22, 87, 20, 24, 79, 67, 11, 13, 24, 123, 0)
s = 6: (0, 23, 101, 42, 30, 65, 86, 16, 21, 35, 47, 0)
s = 7: (0, 38, 150, 21, 35, 67, 72, 12, 9, 39, 49, 0)
s = 8: (0, 32, 133, 33, 19, 49, 49, 20, 15, 16, 101, 0)
s = 9: (0, 21, 152, 43, 36, 83, 59, 14, 22, 29, 79, 0)
s = 10: (0, 32, 160, 19, 26, 84, 111, 13, 11, 27, 73, 0)
s = 11: (0, 18, 137, 31, 45, 48, 77, 11, 12, 34, 59, 0)
s = 12: (0, 15, 126, 37, 20, 71, 48, 16, 19, 38, 55, 0)
s = 13: (0, 21, 88, 48, 46, 97, 69, 14, 8, 41, 61, 0)
s = 14: (0, 26, 91, 28, 24, 63, 100, 15, 12, 21, 70, 0)
s = 15: (0, 37, 158, 27, 36, 98, 55, 20, 9, 33, 41, 0)
s = 16: (0, 30, 254, 26, 29, 49, 80, 13, 10, 33, 98, 0)
s = 17: (0, 21, 202, 22, 29, 82, 99, 20, 14, 16, 75, 0)
s = 18: (0, 28, 168, 19, 46, 69, 99, 18, 9, 33, 93, 0)
s = 19: (0, 17, 96, 28, 32, 114, 96, 11, 14, 37, 64, 0)
s = 20: (0, 29, 162, 36, 23, 63, 63, 14, 9, 38, 47, 0)
s = 21: (0, 32, 106, 30, 35, 69, 106, 15, 10, 32, 100, 0)
s = 22: (0, 42, 139, 29, 29, 50, 69, 17, 13, 28, 90, 0)
s = 23: (0, 27, 109, 24, 21, 51, 94, 16, 9, 37, 54, 0)
s = 24: (0, 18, 232, 38, 23, 78, 73, 20, 14, 36, 47, 0)
s = 25: (0, 16, 82, 31, 20, 86, 103, 15, 9, 17, 81, 0)
s = 26: (0, 23, 120, 40, 29, 59, 94, 15, 15, 47, 89, 0)
s = 27: (0, 33, 110, 45, 31, 74, 114, 11, 12, 24, 85, 0)
s = 28: (0, 28, 94, 33, 29, 70, 79, 9, 10, 15, 131, 0)
s = 29: (0, 34, 108, 21, 29, 54, 96, 20, 16, 21, 76, 0)
s = 30: (0, 26, 151, 34, 24, 64, 104, 14, 12, 42, 77, 0)
s = 31: (0, 31, 131, 22, 43, 61, 53, 20, 14, 23, 49, 0)
s = 32: (0, 17, 146, 22, 52, 71, 110, 25, 8, 42, 88, 0)
s = 33: (0, 27, 187, 18, 26, 87, 56, 19, 8, 51, 49, 0)
s = 34: (0, 25, 89, 51, 23, 43, 70, 14, 12, 43, 47, 0)
s = 35: (0, 32, 123, 24, 39, 90, 131, 15, 9, 23, 86, 0)
s = 36: (0, 27, 199, 20, 20, 84, 65, 12, 8, 54, 69, 0)
s = 37: (0, 37, 139, 23, 20, 50, 83, 10, 11, 19, 81, 0)
s = 38: (0, 26, 73, 41, 21, 64, 75, 19, 22, 46, 85, 0)
s = 39: (0, 17, 97, 26, 53, 77, 107, 11, 12, 20, 112, 0)
s = 40: (0, 20, 124, 16, 23, 102, 95, 14, 11, 26, 52, 0)
s = 41: (0, 16, 137, 23, 63, 79, 67, 9, 8, 24, 110, 0)
s = 42: (0, 28, 134, 44, 31, 60, 132, 18, 15, 16, 94, 0)
s = 43: (0, 21, 136, 41, 39, 103, 104, 14, 15, 25, 75, 0)
s = 44: (0, 26, 161, 32, 28, 56, 73, 18, 12, 25, 82, 0)
s = 45: (0, 22, 75, 25, 43, 66, 64, 10, 10, 20, 49, 0)
s = 46: (0, 15, 205, 21, 33, 82, 109, 14, 16, 41, 75, 0)
s = 47: (0, 21, 187, 39, 35, 47, 66, 13, 8, 21, 111, 0)
s = 48: (0, 25, 170, 34, 34, 90, 89, 17, 8, 18, 75, 0)
s = 49: (0, 16, 133, 31, 25, 105, 124, 14, 13, 27, 69, 0)
s = 50: (0, 27, 112, 31, 27, 95, 59, 12, 14, 19, 64, 0)
s = 51: (0, 30, 100, 31, 33, 75, 105, 22, 8, 24, 74, 0)
s = 52: (0, 21, 132, 37, 25, 67, 152, 11, 15, 32, 65, 0)
s = 53: (0, 32, 98, 17, 43, 73, 60, 22, 14, 27, 88, 0)
s = 54: (0, 23, 129, 51, 32, 58, 112, 16, 9, 22, 75, 0)
s = 55: (0, 35, 112, 35, 42, 83, 86, 9, 11, 36, 75, 0)
s = 56: (0, 17, 127, 28, 41, 87, 61, 13, 14, 16, 46, 0)
s = 57: (0, 21, 139, 44, 31, 104, 73, 13, 14, 18, 78, 0)
s = 58: (0, 14, 169, 43, 23, 100, 88, 12, 10, 29, 48, 0)
s = 59: (0, 14, 115, 22, 36, 61, 81, 9, 10, 23, 95, 0)
s = 60: (0, 23, 225, 36, 50, 75, 87, 14, 14, 20, 85, 0)
s = 61: (0, 14, 79, 24, 52, 79, 115, 13, 8, 26, 51, 0)
s = 62: (0, 18, 174, 27, 44, 76, 88, 12, 13, 31, 62, 0)
s = 63: (0, 30, 148, 28, 24, 56, 68, 14, 17, 19, 113, 0)
s = 64: (0, 28, 126, 20, 48, 70, 57, 15, 15, 42, 104, 0)
s = 65: (0, 19, 102, 24, 26, 42, 122, 9, 17, 21, 58, 0)
s = 66: (0, 34, 118, 26, 56, 82, 56, 22, 23, 48, 109, 0)
s = 67: (0, 22, 158, 28, 29, 108, 57, 12, 14, 30, 83, 0)
s = 68: (0, 21, 116, 30, 35, 88, 73, 22, 9, 24, 51, 0)
s = 69: (0, 16, 116, 26, 34, 55, 68, 16, 13, 16, 95, 0)
s = 70: (0, 21, 75, 22, 23, 59, 55, 13, 8, 19, 110, 0)
s = 71: (0, 19, 189, 36, 35, 124, 64, 19, 9, 34, 65, 0)
s = 72: (0, 23, 129, 34, 24, 68, 71, 12, 12, 43, 54, 0)
s = 73: (0, 18, 153, 44, 19, 75, 69, 22, 15, 31, 93, 0)
s = 74: (0, 21, 167, 25, 27, 73, 59, 12, 14, 40, 59, 0)
s = 75: (0, 18, 149, 21, 30, 87, 123, 11, 12, 19, 68, 0)
s = 76: (0, 20, 111, 31, 32, 103, 111, 21, 17, 32, 109, 0)
s = 77: (0, 27, 143, 40, 20, 86, 73, 10, 14, 33, 129, 0)
s = 78: (0, 21, 147, 31, 56, 118, 115, 10, 12, 31, 86, 0)
s = 79: (0, 29, 186, 30, 24, 73, 77, 22, 15, 39, 103, 0)
s = 80: (0, 18, 101, 38, 28, 120, 67, 13, 16, 20, 73, 0)
s = 81: (0, 17, 160, 29, 35, 71, 96, 16, 10, 23, 49, 0)
s = 82: (0, 23, 141, 36, 37, 88, 119, 9, 11, 29, 115, 0)
s = 83: (0, 35, 161, 21, 19, 56, 97, 10, 16, 22, 71, 0)
s = 84: (0, 22, 88, 24, 42, 125, 49, 9, 14, 36, 92, 0)
s = 85: (0, 21, 247, 28, 27, 50, 130, 10, 11, 21, 67, 0)
s = 86: (0, 25, 124, 36, 48, 107, 97, 21, 16, 31, 55, 0)
s = 87: (0, 22, 135, 32, 24, 63, 64, 19, 18, 18, 71, 0)
s = 88: (0, 25, 87, 43, 20, 67, 55, 16, 15, 20, 40, 0)
s = 89: (0, 14, 100, 35, 29, 138, 101, 14, 10, 30, 86, 0)
s = 90: (0, 33, 156, 27, 44, 50, 55, 19, 7, 16, 50, 0)
s = 91: (0, 22, 93, 21, 24, 54, 68, 14, 12, 25, 54, 0)
s = 92: (0, 21, 190, 32, 41, 78, 82, 12, 11, 24, 72, 0)
s = 93: (0, 42, 109, 33, 25, 65, 99, 11, 14, 36, 97, 0)
s = 94: (0, 19, 131, 34, 22, 48, 72, 20, 15, 24, 54, 0)
s = 95: (0, 16, 114, 44, 31, 70, 62, 20, 11, 27, 43, 0)
s = 96: (0, 28, 109, 27, 30, 88, 123, 10, 11, 19, 74, 0)
s = 97: (0, 21, 163, 24, 38, 97, 67, 19, 8, 29, 86, 0)
s = 98: (0, 29, 184, 43, 50, 50, 58, 13, 12, 30, 98, 0)
s = 99: (0, 19, 192, 47, 37, 54, 81, 12, 16, 17, 59, 0)
s = 100: (0, 32, 74, 35, 20, 64, 71, 18, 14, 39, 109, 0)
s = 101: (0, 32, 171, 23, 31, 97, 45, 15, 11, 31, 83, 0)
s = 102: (0, 27, 84, 31, 34, 73, 54, 16, 8, 26, 102, 0)
s = 103: (0, 22, 168, 24, 21, 51, 101, 15, 11, 19, 71, 0)
s = 104: (0, 22, 96, 18, 39, 63, 97, 16, 17, 26, 55, 0)
s = 105: (0, 20, 199, 27, 47, 68, 87, 10, 8, 18, 57, 0)
s = 106: (0, 26, 134, 38, 37, 58, 77, 12, 19, 47, 57, 0)
s = 107: (0, 28, 125, 37, 26, 80, 91, 15, 8, 24, 52, 0)
s = 108: (0, 27, 143, 24, 36, 63, 90, 11, 13, 29, 84, 0)
s = 109: (0, 35, 106, 25, 24, 63, 74, 10, 12, 24, 60, 0)
s = 110: (0, 22, 167, 38, 33, 94, 70, 11, 14, 41, 66, 0)
s = 111: (0, 29, 79, 33, 25, 104, 97, 16, 15, 36, 103, 0)
s = 112: (0, 26, 70, 27, 52, 72, 110, 10, 12, 22, 62, 0)
s = 113: (0, 26, 139, 29, 40, 62, 96, 20, 10, 22, 92, 0)
s = 114: (0, 18, 122, 44, 37, 102, 88, 13, 14, 41, 81, 0)
s = 115: (0, 21, 178, 40, 27, 95, 135, 17, 11, 21, 99, 0)
s = 116: (0, 25, 136, 34, 35, 87, 95, 10, 13, 26, 62, 0)
s = 117: (0, 18, 93, 30, 46, 55, 68, 12, 7, 30, 112, 0)
s = 118: (0, 19, 84, 21, 26, 54, 153, 15, 13, 35, 86, 0)
s = 119: (0, 34, 78, 25, 30, 42, 122, 13, 17, 30, 70, 0)
s = 120: (0, 22, 112, 37, 37, 77, 71, 10, 12, 38, 68, 0)
s = 121: (0, 18, 104, 31, 34, 85, 108, 14, 7, 29, 109, 0)
s = 122: (0, 19, 115, 32, 25, 74, 100, 10, 10, 26, 60, 0)
s = 123: (0, 16, 120, 24, 24, 41, 114, 17, 14, 45, 86, 0)
s = 124: (0, 29, 83, 26, 34, 44, 73, 14, 9, 29, 60, 0)
s = 125: (0, 30, 170, 21, 27, 86, 116, 10, 7, 50, 93, 0)
s = 126: (0, 26, 149, 32, 32, 61, 76, 21, 10, 41, 80, 0)
s = 127: (0, 24, 96, 35, 40, 57, 143, 9, 14, 16, 64, 0)
s = 128: (0, 31, 215, 38, 19, 61, 50, 10, 13, 32, 85, 0)
s = 129: (0, 30, 88, 22, 35, 69, 97, 15, 9, 30, 100, 0)
s = 130: (0, 26, 217, 18, 37, 45, 92, 17, 21, 22, 44, 0)
s = 131: (0, 20, 176, 20, 36, 78, 145, 11, 11, 36, 62, 0)
s = 132: (0, 31, 108, 17, 29, 74, 64, 13, 16, 36, 54, 0)
s = 133: (0, 31, 189, 33, 31, 70, 86, 10, 12, 27, 97, 0)
s = 134: (0, 18, 70, 44, 28, 116, 49, 14, 12, 27, 101, 0)
s = 135: (0, 29, 112, 24, 39, 81, 52, 13, 9, 28, 72, 0)
s = 136: (0, 20, 135, 21, 24, 95, 104, 10, 11, 17, 68, 0)
s = 137: (0, 18, 150, 24, 33, 78, 50, 12, 18, 25, 76, 0)
s = 138: (0, 19, 120, 27, 41, 42, 98, 16, 10, 30, 84, 0)
s = 139: (0, 29, 87, 24, 22, 101, 71, 15, 10, 38, 59, 0)
s = 140: (0, 31, 234, 26, 45, 44, 49, 15, 20, 20, 134, 0)
s = 141: (0, 33, 96, 24, 23, 67, 80, 12, 18, 20, 64, 0)
s = 142: (0, 34, 132, 23, 28, 73, 90, 9, 11, 29, 124, 0)
s = 143: (0, 25, 138, 35, 23, 92, 87, 10, 8, 26, 65, 0)
s = 144: (0, 17, 164, 18, 39, 71, 59, 11, 10, 20, 95, 0)
s = 145: (0, 28, 146, 32, 42, 82, 62, 9, 12, 19, 75, 0)
s = 146: (0, 37, 104, 42, 46, 62, 58, 16, 10, 27, 46, 0)
s = 147: (0, 19, 192, 23, 30, 83, 84, 19, 15, 20, 108, 0)
s = 148: (0, 19, 101, 35, 42, 86, 114, 14, 13, 19, 73, 0)
s = 149: (0, 28, 130, 30, 42, 90, 65, 23, 14, 20, 83, 0)
s = 150: (0, 27, 116, 24, 28, 93, 66, 14, 15, 24, 124, 0)
s = 151: (0, 30, 90, 22, 37, 55, 68, 11, 12, 34, 113, 0)
s = 152: (0, 23, 237, 35, 26, 85, 135, 16, 8, 27, 46, 0)
s = 153: (0, 24, 109, 21, 28, 91, 98, 17, 9, 21, 57, 0)
s = 154: (0, 24, 97, 27, 36, 110, 59, 12, 14, 26, 87, 0)
s = 155: (0, 23, 124, 30, 55, 87, 56, 14, 12, 36, 96, 0)
s = 156: (0, 28, 120, 25, 31, 89, 87, 11, 14, 23, 93, 0)
s = 157: (0, 17, 115, 30, 37, 126, 66, 11, 14, 22, 57, 0)
s = 158: (0, 16, 113, 25, 43, 66, 74, 18, 21, 25, 79, 0)
s = 159: (0, 23, 112, 35, 34, 86, 85, 14, 15, 23, 110, 0)
s = 160: (0, 34, 84, 27, 49, 55, 90, 14, 14, 25, 95, 0)
s = 161: (0, 30, 98, 28, 36, 77, 129, 8, 11, 41, 75, 0)
s = 162: (0, 22, 127, 36, 29, 43, 93, 18, 10, 31, 71, 0)
s = 163: (0, 16, 217, 41, 27, 99, 113, 12, 8, 24, 100, 0)
s = 164: (0, 20, 128, 42, 56, 75, 71, 21, 19, 23, 113, 0)
s = 165: (0, 14, 151, 31, 32, 91, 82, 17, 18, 27, 89, 0)
s = 166: (0, 30, 99, 32, 31, 59, 78, 10, 16, 23, 92, 0)
s = 167: (0, 23, 247, 22, 17, 58, 80, 14, 8, 26, 68, 0)
s = 168: (0, 20, 147, 44, 31, 75, 70, 10, 12, 15, 68, 0)
s = 169: (0, 16, 137, 30, 24, 77, 106, 15, 16, 20, 41, 0)
s = 170: (0, 19, 125, 28, 29, 71, 101, 10, 14, 22, 71, 0)
s = 171: (0, 19, 101, 23, 45, 73, 116, 13, 15, 33, 68, 0)
s = 172: (0, 29, 249, 43, 23, 94, 85, 15, 14, 20, 73, 0)
s = 173: (0, 24, 172, 33, 36, 65, 62, 11, 11, 37, 64, 0)
s = 174: (0, 21, 91, 29, 46, 81, 103, 15, 12, 32, 144, 0)
s = 175: (0, 19, 119, 20, 21, 63, 86, 14, 7, 32, 73, 0)
s = 176: (0, 30, 147, 41, 23, 120, 82, 9, 9, 26, 63, 0)
s = 177: (0, 22, 110, 43, 20, 77, 81, 14, 13, 24, 72, 0)
s = 178: (0, 17, 83, 36, 28, 104, 47, 21, 11, 19, 140, 0)
s = 179: (0, 27, 117, 29, 19, 138, 60, 11, 11, 32, 76, 0)
s = 180: (0, 19, 122, 34, 30, 77, 75, 15, 15, 28, 71, 0)
s = 181: (0, 25, 108, 30, 31, 63, 60, 13, 19, 24, 101, 0)
s = 182: (0, 24, 137, 40, 39, 96, 54, 15, 16, 20, 57, 0)
s = 183: (0, 29, 135, 28, 32, 79, 106, 15, 13, 23, 60, 0)
s = 184: (0, 33, 158, 41, 45, 104, 140, 15, 7, 42, 106, 0)
s = 185: (0, 27, 184, 26, 21, 92, 109, 12, 13, 41, 55, 0)
s = 186: (0, 15, 142, 20, 40, 59, 88, 10, 9, 29, 61, 0)
s = 187: (0, 15, 206, 21, 20, 88, 61, 21, 15, 35, 89, 0)
s = 188: (0, 20, 115, 35, 32, 133, 54, 16, 15, 27, 115, 0)
s = 189: (0, 17, 228, 37, 24, 56, 118, 10, 20, 33, 109, 0)
s = 190: (0, 20, 115, 21, 26, 107, 72, 23, 13, 25, 51, 0)
s = 191: (0, 24, 105, 48, 31, 92, 50, 16, 17, 22, 73, 0)
s = 192: (0, 24, 161, 35, 44, 82, 92, 15, 19, 22, 74, 0)
s = 193: (0, 23, 89, 18, 34, 53, 113, 12, 17, 30, 89, 0)
s = 194: (0, 27, 113, 19, 19, 80, 121, 11, 7, 44, 95, 0)
s = 195: (0, 28, 118, 40, 29, 85, 115, 13, 15, 20, 92, 0)
s = 196: (0, 23, 198, 35, 27, 67, 160, 16, 14, 23, 54, 0)
s = 197: (0, 29, 94, 34, 36, 93, 82, 11, 7, 23, 49, 0)
s = 198: (0, 33, 205, 24, 43, 90, 64, 8, 13, 30, 69, 0)
s = 199: (0, 19, 109, 29, 26, 123, 122, 19, 17, 26, 49, 0)
s = 200: (0, 16, 107, 28, 22, 107, 124, 16, 13, 26, 77, 0)
************************************************************************
ES/LS-VALUES:
jobnr.   ES(i)    LS(i)
------------------------------------------------------------------------
  0        0        0
  1        0       41
  2        0       54
  3        0       61
  4        7       48
  5       14       56
  6        7       65
  7       14       75
  8       15       77
  9       16       75
 10       26       69
 11       35       79
************************************************************************
BIG-M-VALUES:
M1 = 55, M2 = 433
************************************************************************
